\Problem name: ilog.cplex

Minimize
 obj:
Subject To
 Cycle.0,1:       >= -0.000162284972411442
 Cycle.0,2:       >= -6.25941553367714
 Cycle.1,2:       >= -91.5189933523267
 Cycle.0,3:       >= -24.6105540029591
 Cycle.1,3:       >= -18.2209457209457
 Cycle.2,3:       >= -24.4349847683181
 Cycle.0,4:       >= -46.0002693239968
 Cycle.1,4:       >= -40.0002727768685
 Cycle.2,4:       >= -45.0743367480956
 Cycle.3,4:       >= -65.0262503453993
 Cycle.0,2,1:     - 47.0001622849724 k_{0,1} + 45.2594155336771 k_{0,2}
                  - 137.518993352327 k_{1,2} >= 20.7405844663229
 Cycle.0,1,2:     47.0001622849724 k_{0,1} - 45.2594155336771 k_{0,2}
                  + 137.518993352327 k_{1,2} >= -118.519155637299
 Cycle.0,3,1:     - 47.0001622849724 k_{0,1} + 47.6105540029591 k_{0,3}
                  - 48.2209457209457 k_{1,3} >= 2.38944599704094
 Cycle.0,1,3:     47.0001622849724 k_{0,1} - 47.6105540029591 k_{0,3}
                  + 48.2209457209457 k_{1,3} >= -45.2211080059181
 Cycle.0,3,2:     - 45.2594155336771 k_{0,2} + 47.6105540029591 k_{0,3}
                  - 46.4349847683181 k_{2,3} >= -5.61055400295906
 Cycle.0,2,3:     45.2594155336771 k_{0,2} - 47.6105540029591 k_{0,3}
                  + 46.4349847683181 k_{2,3} >= -49.6944003019952
 Cycle.1,3,2:     - 137.518993352327 k_{1,2} + 48.2209457209457 k_{1,3}
                  - 46.4349847683181 k_{2,3} >= 0.779054279054279
 Cycle.1,2,3:     137.518993352327 k_{1,2} - 48.2209457209457 k_{1,3}
                  + 46.4349847683181 k_{2,3} >= -134.953978120645
 Cycle.0,4,1:     - 47.0001622849724 k_{0,1} + 78.0002693239968 k_{0,4}
                  - 79.0002727768685 k_{1,4} >= -19.0002693239968
 Cycle.0,1,4:     47.0001622849724 k_{0,1} - 78.0002693239968 k_{0,4}
                  + 79.0002727768685 k_{1,4} >= -67.0004350618409
 Cycle.0,4,2:     - 45.2594155336771 k_{0,2} + 78.0002693239968 k_{0,4}
                  - 76.0743367480956 k_{2,4} >= -27.0002693239968
 Cycle.0,2,4:     45.2594155336771 k_{0,2} - 78.0002693239968 k_{0,4}
                  + 76.0743367480956 k_{2,4} >= -70.3337522817727
 Cycle.1,4,2:     - 137.518993352327 k_{1,2} + 79.0002727768685 k_{1,4}
                  - 76.0743367480956 k_{2,4} >= -21.0002727768685
 Cycle.1,2,4:     137.518993352327 k_{1,2} - 79.0002727768685 k_{1,4}
                  + 76.0743367480956 k_{2,4} >= -155.593330100422
 Cycle.0,4,3:     - 47.6105540029591 k_{0,3} + 78.0002693239968 k_{0,4}
                  - 80.0262503453993 k_{3,4} >= -43.0002693239968
 Cycle.0,3,4:     47.6105540029591 k_{0,3} - 78.0002693239968 k_{0,4}
                  + 80.0262503453993 k_{3,4} >= -92.6368043483583
 Cycle.1,4,3:     - 48.2209457209457 k_{1,3} + 79.0002727768685 k_{1,4}
                  - 80.0262503453993 k_{3,4} >= -37.0002727768685
 Cycle.1,3,4:     48.2209457209457 k_{1,3} - 79.0002727768685 k_{1,4}
                  + 80.0262503453993 k_{3,4} >= -86.247196066345
 Cycle.2,4,3:     - 46.4349847683181 k_{2,3} + 76.0743367480956 k_{2,4}
                  - 80.0262503453993 k_{3,4} >= -42.0743367480956
 Cycle.2,3,4:     46.4349847683181 k_{2,3} - 76.0743367480956 k_{2,4}
                  + 80.0262503453993 k_{3,4} >= -92.4612351137174
 Cycle.0,3,2,1:   - 47.0001622849724 k_{0,1} - 137.518993352327 k_{1,2}
                  + 47.6105540029591 k_{0,3} - 46.4349847683181 k_{2,3}
                  >= 21.3894459970409
 Cycle.0,2,3,1:   - 47.0001622849724 k_{0,1} + 45.2594155336771 k_{0,2}
                  - 48.2209457209457 k_{1,3} + 46.4349847683181 k_{2,3}
                  >= -22.6944003019952
 Cycle.0,2,1,3:   45.2594155336771 k_{0,2} - 137.518993352327 k_{1,2}
                  - 47.6105540029591 k_{0,3} + 48.2209457209457 k_{1,3}
                  >= -24.4803612546229
 Cycle.0,3,1,2:   - 45.2594155336771 k_{0,2} + 137.518993352327 k_{1,2}
                  + 47.6105540029591 k_{0,3} - 48.2209457209457 k_{1,3}
                  >= -116.129547355286
 Cycle.0,1,3,2:   47.0001622849724 k_{0,1} - 45.2594155336771 k_{0,2}
                  + 48.2209457209457 k_{1,3} - 46.4349847683181 k_{2,3}
                  >= -26.2211080059181
 Cycle.0,1,2,3:   47.0001622849724 k_{0,1} + 137.518993352327 k_{1,2}
                  - 47.6105540029591 k_{0,3} + 46.4349847683181 k_{2,3}
                  >= -161.954140405617
 Cycle.0,4,2,1:   - 47.0001622849724 k_{0,1} - 137.518993352327 k_{1,2}
                  + 78.0002693239968 k_{0,4} - 76.0743367480956 k_{2,4}
                  >= -0.000269323996761273
 Cycle.0,2,4,1:   - 47.0001622849724 k_{0,1} + 45.2594155336771 k_{0,2}
                  - 79.0002727768685 k_{1,4} + 76.0743367480956 k_{2,4}
                  >= -43.3337522817727
 Cycle.0,2,1,4:   45.2594155336771 k_{0,2} - 137.518993352327 k_{1,2}
                  - 78.0002693239968 k_{0,4} + 79.0002727768685 k_{1,4}
                  >= -46.2596883105457
 Cycle.0,4,1,2:   - 45.2594155336771 k_{0,2} + 137.518993352327 k_{1,2}
                  + 78.0002693239968 k_{0,4} - 79.0002727768685 k_{1,4}
                  >= -137.519262676323
 Cycle.0,1,4,2:   47.0001622849724 k_{0,1} - 45.2594155336771 k_{0,2}
                  + 79.0002727768685 k_{1,4} - 76.0743367480956 k_{2,4}
                  >= -48.0004350618409
 Cycle.0,1,2,4:   47.0001622849724 k_{0,1} + 137.518993352327 k_{1,2}
                  - 78.0002693239968 k_{0,4} + 76.0743367480956 k_{2,4}
                  >= -182.593492385395
 Cycle.0,4,3,1:   - 47.0001622849724 k_{0,1} - 48.2209457209457 k_{1,3}
                  + 78.0002693239968 k_{0,4} - 80.0262503453993 k_{3,4}
                  >= -16.0002693239968
 Cycle.0,3,4,1:   - 47.0001622849724 k_{0,1} + 47.6105540029591 k_{0,3}
                  - 79.0002727768685 k_{1,4} + 80.0262503453993 k_{3,4}
                  >= -65.6368043483583
 Cycle.0,3,1,4:   47.6105540029591 k_{0,3} - 48.2209457209457 k_{1,3}
                  - 78.0002693239968 k_{0,4} + 79.0002727768685 k_{1,4}
                  >= -64.6108267798276
 Cycle.0,4,1,3:   - 47.6105540029591 k_{0,3} + 48.2209457209457 k_{1,3}
                  + 78.0002693239968 k_{0,4} - 79.0002727768685 k_{1,4}
                  >= -64.2212150449425
 Cycle.0,1,4,3:   47.0001622849724 k_{0,1} - 47.6105540029591 k_{0,3}
                  + 79.0002727768685 k_{1,4} - 80.0262503453993 k_{3,4}
                  >= -64.0004350618409
 Cycle.0,1,3,4:   47.0001622849724 k_{0,1} + 48.2209457209457 k_{1,3}
                  - 78.0002693239968 k_{0,4} + 80.0262503453993 k_{3,4}
                  >= -113.247358351317
 Cycle.0,4,3,2:   - 45.2594155336771 k_{0,2} - 46.4349847683181 k_{2,3}
                  + 78.0002693239968 k_{0,4} - 80.0262503453993 k_{3,4}
                  >= -24.0002693239968
 Cycle.0,3,4,2:   - 45.2594155336771 k_{0,2} + 47.6105540029591 k_{0,3}
                  - 76.0743367480956 k_{2,4} + 80.0262503453993 k_{3,4}
                  >= -73.6368043483583
 Cycle.0,3,2,4:   47.6105540029591 k_{0,3} - 46.4349847683181 k_{2,3}
                  - 78.0002693239968 k_{0,4} + 76.0743367480956 k_{2,4}
                  >= -69.6848907510547
 Cycle.0,4,2,3:   - 47.6105540029591 k_{0,3} + 46.4349847683181 k_{2,3}
                  + 78.0002693239968 k_{0,4} - 76.0743367480956 k_{2,4}
                  >= -70.4352540923149
 Cycle.0,2,4,3:   45.2594155336771 k_{0,2} - 47.6105540029591 k_{0,3}
                  + 76.0743367480956 k_{2,4} - 80.0262503453993 k_{3,4}
                  >= -67.3337522817727
 Cycle.0,2,3,4:   45.2594155336771 k_{0,2} + 46.4349847683181 k_{2,3}
                  - 78.0002693239968 k_{0,4} + 80.0262503453993 k_{3,4}
                  >= -117.720650647395
 Cycle.1,4,3,2:   - 137.518993352327 k_{1,2} - 46.4349847683181 k_{2,3}
                  + 79.0002727768685 k_{1,4} - 80.0262503453993 k_{3,4}
                  >= -18.0002727768685
 Cycle.1,3,4,2:   - 137.518993352327 k_{1,2} + 48.2209457209457 k_{1,3}
                  - 76.0743367480956 k_{2,4} + 80.0262503453993 k_{3,4}
                  >= -67.247196066345
 Cycle.1,3,2,4:   48.2209457209457 k_{1,3} - 46.4349847683181 k_{2,3}
                  - 79.0002727768685 k_{1,4} + 76.0743367480956 k_{2,4}
                  >= -63.2952824690413
 Cycle.1,4,2,3:   - 48.2209457209457 k_{1,3} + 46.4349847683181 k_{2,3}
                  + 79.0002727768685 k_{1,4} - 76.0743367480956 k_{2,4}
                  >= -64.4352575451866
 Cycle.1,2,4,3:   137.518993352327 k_{1,2} - 48.2209457209457 k_{1,3}
                  + 76.0743367480956 k_{2,4} - 80.0262503453993 k_{3,4}
                  >= -152.593330100422
 Cycle.1,2,3,4:   137.518993352327 k_{1,2} + 46.4349847683181 k_{2,3}
                  - 79.0002727768685 k_{1,4} + 80.0262503453993 k_{3,4}
                  >= -202.980228466044
 Cycle.0,4,3,2,1: - 47.0001622849724 k_{0,1} - 137.518993352327 k_{1,2}
                  - 46.4349847683181 k_{2,3} + 78.0002693239968 k_{0,4}
                  - 80.0262503453993 k_{3,4} >= 2.99973067600324
 Cycle.0,3,4,2,1: - 47.0001622849724 k_{0,1} - 137.518993352327 k_{1,2}
                  + 47.6105540029591 k_{0,3} - 76.0743367480956 k_{2,4}
                  + 80.0262503453993 k_{3,4} >= -46.6368043483583
 Cycle.0,3,2,4,1: - 47.0001622849724 k_{0,1} + 47.6105540029591 k_{0,3}
                  - 46.4349847683181 k_{2,3} - 79.0002727768685 k_{1,4}
                  + 76.0743367480956 k_{2,4} >= -42.6848907510547
 Cycle.0,3,2,1,4: - 137.518993352327 k_{1,2} + 47.6105540029591 k_{0,3}
                  - 46.4349847683181 k_{2,3} - 78.0002693239968 k_{0,4}
                  + 79.0002727768685 k_{1,4} >= -45.6108267798276
 Cycle.0,4,2,3,1: - 47.0001622849724 k_{0,1} - 48.2209457209457 k_{1,3}
                  + 46.4349847683181 k_{2,3} + 78.0002693239968 k_{0,4}
                  - 76.0743367480956 k_{2,4} >= -43.4352540923149
 Cycle.0,2,4,3,1: - 47.0001622849724 k_{0,1} + 45.2594155336771 k_{0,2}
                  - 48.2209457209457 k_{1,3} + 76.0743367480956 k_{2,4}
                  - 80.0262503453993 k_{3,4} >= -40.3337522817727
 Cycle.0,2,3,4,1: - 47.0001622849724 k_{0,1} + 45.2594155336771 k_{0,2}
                  + 46.4349847683181 k_{2,3} - 79.0002727768685 k_{1,4}
                  + 80.0262503453993 k_{3,4} >= -90.7206506473945
 Cycle.0,2,3,1,4: 45.2594155336771 k_{0,2} - 48.2209457209457 k_{1,3}
                  + 46.4349847683181 k_{2,3} - 78.0002693239968 k_{0,4}
                  + 79.0002727768685 k_{1,4} >= -89.6946730788638
 Cycle.0,4,2,1,3: - 137.518993352327 k_{1,2} - 47.6105540029591 k_{0,3}
                  + 48.2209457209457 k_{1,3} + 78.0002693239968 k_{0,4}
                  - 76.0743367480956 k_{2,4} >= -45.2212150449425
 Cycle.0,2,4,1,3: 45.2594155336771 k_{0,2} - 47.6105540029591 k_{0,3}
                  + 48.2209457209457 k_{1,3} - 79.0002727768685 k_{1,4}
                  + 76.0743367480956 k_{2,4} >= -88.5546980027185
 Cycle.0,2,1,4,3: 45.2594155336771 k_{0,2} - 137.518993352327 k_{1,2}
                  - 47.6105540029591 k_{0,3} + 79.0002727768685 k_{1,4}
                  - 80.0262503453993 k_{3,4} >= -43.2596883105457
 Cycle.0,2,1,3,4: 45.2594155336771 k_{0,2} - 137.518993352327 k_{1,2}
                  + 48.2209457209457 k_{1,3} - 78.0002693239968 k_{0,4}
                  + 80.0262503453993 k_{3,4} >= -92.5066116000221
 Cycle.0,4,3,1,2: - 45.2594155336771 k_{0,2} + 137.518993352327 k_{1,2}
                  - 48.2209457209457 k_{1,3} + 78.0002693239968 k_{0,4}
                  - 80.0262503453993 k_{3,4} >= -134.519262676323
 Cycle.0,3,4,1,2: - 45.2594155336771 k_{0,2} + 137.518993352327 k_{1,2}
                  + 47.6105540029591 k_{0,3} - 79.0002727768685 k_{1,4}
                  + 80.0262503453993 k_{3,4} >= -184.155797700685
 Cycle.0,3,1,4,2: - 45.2594155336771 k_{0,2} + 47.6105540029591 k_{0,3}
                  - 48.2209457209457 k_{1,3} + 79.0002727768685 k_{1,4}
                  - 76.0743367480956 k_{2,4} >= -45.6108267798276
 Cycle.0,3,1,2,4: 137.518993352327 k_{1,2} + 47.6105540029591 k_{0,3}
                  - 48.2209457209457 k_{1,3} - 78.0002693239968 k_{0,4}
                  + 76.0743367480956 k_{2,4} >= -180.203884103381
 Cycle.0,4,1,3,2: - 45.2594155336771 k_{0,2} + 48.2209457209457 k_{1,3}
                  - 46.4349847683181 k_{2,3} + 78.0002693239968 k_{0,4}
                  - 79.0002727768685 k_{1,4} >= -45.2212150449425
 Cycle.0,1,4,3,2: 47.0001622849724 k_{0,1} - 45.2594155336771 k_{0,2}
                  - 46.4349847683181 k_{2,3} + 79.0002727768685 k_{1,4}
                  - 80.0262503453993 k_{3,4} >= -45.0004350618409
 Cycle.0,1,3,4,2: 47.0001622849724 k_{0,1} - 45.2594155336771 k_{0,2}
                  + 48.2209457209457 k_{1,3} - 76.0743367480956 k_{2,4}
                  + 80.0262503453993 k_{3,4} >= -94.2473583513174
 Cycle.0,1,3,2,4: 47.0001622849724 k_{0,1} + 48.2209457209457 k_{1,3}
                  - 46.4349847683181 k_{2,3} - 78.0002693239968 k_{0,4}
                  + 76.0743367480956 k_{2,4} >= -90.2954447540137
 Cycle.0,4,1,2,3: 137.518993352327 k_{1,2} - 47.6105540029591 k_{0,3}
                  + 46.4349847683181 k_{2,3} + 78.0002693239968 k_{0,4}
                  - 79.0002727768685 k_{1,4} >= -180.954247444642
 Cycle.0,1,4,2,3: 47.0001622849724 k_{0,1} - 47.6105540029591 k_{0,3}
                  + 46.4349847683181 k_{2,3} + 79.0002727768685 k_{1,4}
                  - 76.0743367480956 k_{2,4} >= -91.435419830159
 Cycle.0,1,2,4,3: 47.0001622849724 k_{0,1} + 137.518993352327 k_{1,2}
                  - 47.6105540029591 k_{0,3} + 76.0743367480956 k_{2,4}
                  - 80.0262503453993 k_{3,4} >= -179.593492385395
 Cycle.0,1,2,3,4: 47.0001622849724 k_{0,1} + 137.518993352327 k_{1,2}
                  + 46.4349847683181 k_{2,3} - 78.0002693239968 k_{0,4}
                  + 80.0262503453993 k_{3,4} >= -229.980390751016
Bounds
 0 <= k_{0,1} <= 77
 0 <= k_{0,2} <= 78
 0 <= k_{1,2} <= 25
 0 <= k_{0,3} <= 76
 0 <= k_{1,3} <= 76
 0 <= k_{2,3} <= 76
 0 <= k_{0,4} <= 46
 0 <= k_{1,4} <= 46
 0 <= k_{2,4} <= 46
 0 <= k_{3,4} <= 46
Generals
 k_{0,1}  k_{0,2}  k_{1,2}  k_{0,3}  k_{1,3}  k_{2,3}  k_{0,4}  k_{1,4} 
 k_{2,4}  k_{3,4} 
End
